benchmarks/crosswords/mzn/crossword3_34.ozn
output ([(((("\n"++problem_name)++"\n")++"L:")++show(L))++"\n"]++[if problem[i,j]==0 then "*" else show(letters[fix(L[problem[i,j]])]) endif++if j==cols then "\n" else "" endif | i in 1..rows, j in 1..cols, ])++["\n"];
int: rows = 21;
int: cols = 21;
array [1..rows,1..cols] of int: problem = [|1,2,3,4,5,6,0,7,8,9,10,11,12,13,0,14,15,16,17,18,19|20,21,22,23,24,25,0,26,27,28,29,30,31,32,0,33,34,35,36,37,38|39,40,41,42,43,44,0,45,46,47,48,49,50,51,0,52,53,54,55,56,57|58,59,60,0,61,62,63,64,65,66,67,0,68,69,70,71,72,0,73,74,75|76,77,78,79,0,80,81,82,83,84,0,85,86,87,88,89,0,90,91,92,93|94,95,96,97,98,0,99,100,101,0,102,103,104,105,106,0,107,108,109,110,111|0,0,0,112,113,114,0,0,0,115,116,117,0,0,0,118,119,120,0,0,0|121,122,123,124,125,126,0,127,128,129,130,131,132,133,0,134,135,136,137,138,139|140,141,142,143,144,145,0,146,147,148,149,150,151,152,0,153,154,155,156,157,158|159,160,161,0,162,163,164,165,166,167,0,168,169,170,171,0,172,173,174,175,176|177,178,179,180,0,181,182,183,184,0,0,0,185,186,187,188,0,189,190,191,192|193,194,195,196,197,0,198,199,200,201,0,202,203,204,205,206,207,0,208,209,210|211,212,213,214,215,216,0,217,218,219,220,221,222,223,0,224,225,226,227,228,229|230,231,232,233,234,235,0,236,237,238,239,240,241,242,0,243,244,245,246,247,248|0,0,0,249,250,251,0,0,0,252,253,254,0,0,0,255,256,257,0,0,0|258,259,260,261,262,0,263,264,265,266,267,0,268,269,270,0,271,272,273,274,275|276,277,278,279,0,280,281,282,283,284,0,285,286,287,288,289,0,290,291,292,293|294,295,296,0,297,298,299,300,301,0,302,303,304,305,306,307,308,0,309,310,311|312,313,314,315,316,317,0,318,319,320,321,322,323,324,0,325,326,327,328,329,330|331,332,333,334,335,336,0,337,338,339,340,341,342,343,0,344,345,346,347,348,349|350,351,352,353,354,355,0,356,357,358,359,360,361,362,0,363,364,365,366,367,368|];
int: num_letters = 26;
array [1..num_letters] of string: letters = ["a","b","c","d","e","f","g","h","i","j","k","l","m","n","o","p","q","r","s","t","u","v","w","x","y","z"];
int: N = 368;
array [0..N] of int: L;
string: problem_name = "21.05, 21 x 21";
