benchmarks/crosswords/mzn/crossword3_34.res
REGULAR
REGULAR
REGULAR
REGULAR
REGULAR
REGULAR
REGULAR
REGULAR
REGULAR
REGULAR
REGULAR
REGULAR
REGULAR
REGULAR
REGULAR
REGULAR
REGULAR
REGULAR
REGULAR
REGULAR
REGULAR
REGULAR
REGULAR
REGULAR
REGULAR
REGULAR
REGULAR
REGULAR
REGULAR
REGULAR
REGULAR
REGULAR
REGULAR
REGULAR
REGULAR
REGULAR
REGULAR
REGULAR
REGULAR
REGULAR
REGULAR
REGULAR
REGULAR
REGULAR
REGULAR
REGULAR
REGULAR
REGULAR
REGULAR
REGULAR
REGULAR
REGULAR
REGULAR
REGULAR
REGULAR
REGULAR
REGULAR
REGULAR
REGULAR
REGULAR
REGULAR
REGULAR
REGULAR
REGULAR
REGULAR
REGULAR
REGULAR
REGULAR
REGULAR
REGULAR
REGULAR
REGULAR
REGULAR
REGULAR
REGULAR
REGULAR
REGULAR
REGULAR
REGULAR
REGULAR
REGULAR
REGULAR
REGULAR
REGULAR
REGULAR
REGULAR
REGULAR
REGULAR
REGULAR
REGULAR
REGULAR
REGULAR
REGULAR
REGULAR
REGULAR
REGULAR
REGULAR
REGULAR
REGULAR
REGULAR
REGULAR
REGULAR
REGULAR
REGULAR
REGULAR
REGULAR
REGULAR
REGULAR
REGULAR
REGULAR
REGULAR
REGULAR
REGULAR
REGULAR
REGULAR
REGULAR
REGULAR
REGULAR
REGULAR
REGULAR
REGULAR
REGULAR
REGULAR
REGULAR
REGULAR
REGULAR
REGULAR
REGULAR
REGULAR
REGULAR
REGULAR
REGULAR
REGULAR
REGULAR
REGULAR
REGULAR
REGULAR
REGULAR
REGULAR
REGULAR
REGULAR
REGULAR
REGULAR
REGULAR
L = array1d(0..368, [1, 19, 18, 19, 19, 5, 13, 19, 19, 5, 14, 4, 1, 19, 19, 20, 5, 19, 19, 1, 18, 5, 9, 8, 19, 1, 4, 5, 11, 1, 5, 23, 20, 5, 12, 5, 5, 20, 19, 5, 9, 20, 15, 15, 3, 12, 12, 15, 18, 18, 1, 3, 19, 5, 4, 9, 12, 5, 20, 3, 15, 8, 3, 1, 5, 16, 13, 9, 20, 1, 18, 1, 3, 2, 21, 18, 19, 1, 8, 1, 15, 18, 9, 16, 19, 19, 20, 18, 1, 3, 13, 1, 4, 5, 5, 18, 4, 14, 1, 5, 23, 1, 1, 12, 15, 2, 5, 13, 9, 18, 1, 20, 1, 4, 1, 4, 14, 9, 20, 1, 5, 19, 18, 1, 4, 5, 3, 19, 4, 14, 1, 18, 18, 5, 1, 5, 8, 20, 12, 1, 4, 5, 14, 1, 18, 3, 5, 14, 1, 12, 16, 5, 4, 19, 12, 1, 19, 1, 14, 1, 8, 1, 6, 5, 9, 12, 5, 2, 1, 12, 1, 7, 7, 14, 9, 3, 9, 15, 3, 9, 18, 4, 1, 3, 19, 2, 18, 1, 2, 1, 20, 9, 18, 12, 1, 4, 5, 13, 13, 1, 4, 1, 1, 13, 1, 8, 1, 2, 15, 4, 1, 14, 15, 14, 14, 5, 12, 18, 15, 4, 9, 13, 21, 8, 2, 5, 18, 7, 1, 26, 21, 16, 9, 1, 20, 9, 15, 7, 1, 3, 9, 8, 3, 5, 12, 15, 5, 18, 3, 2, 15, 7, 14, 15, 12, 11, 1, 25, 5, 3, 1, 18, 20, 4, 5, 18, 1, 6, 15, 5, 12, 3, 1, 12, 9, 12, 8, 1, 20, 21, 14, 15, 14, 1, 3, 19, 3, 18, 1, 14, 13, 1, 8, 23, 20, 9, 19, 4, 1, 14, 15, 7, 25, 5, 13, 15, 8, 1, 4, 5, 3, 1, 5, 14, 5, 7, 21, 5, 20, 14, 1, 12, 12, 1, 7, 25, 5, 12, 16, 9, 18, 5, 1, 22, 18, 1, 12, 14, 1, 9, 2, 1, 18, 1, 18, 5, 23, 5, 8, 3, 19, 13, 1, 5, 12, 7, 1, 8, 20, 1, 2, 1, 20, 1, 20, 15, 18, 3, 19]);
----------

%%  runtime:       21.939 (21939.813 ms)
%%  solvetime:     1.016 (1016.907 ms)
%%  solutions:     1
%%  variables:     39630
%%  propagators:   49701
%%  propagations:  2125270
%%  nodes:         512
%%  failures:      195
%%  restarts:      0
%%  peak depth:    140

GECODE_TUPLESET_MEM
GECODE_TUPLESET_MEM
GECODE_TUPLESET_MEM
GECODE_TUPLESET_MEM
GECODE_TUPLESET_MEM
GECODE_TUPLESET_MEM
GECODE_TUPLESET_MEM
GECODE_TUPLESET_MEM
GECODE_TUPLESET_MEM
GECODE_TUPLESET_MEM
GECODE_TUPLESET_MEM
GECODE_TUPLESET_MEM
GECODE_TUPLESET_MEM
GECODE_TUPLESET_MEM
GECODE_TUPLESET_MEM
GECODE_TUPLESET_MEM
GECODE_TUPLESET_MEM
GECODE_TUPLESET_MEM
GECODE_TUPLESET_MEM
GECODE_TUPLESET_MEM
GECODE_TUPLESET_MEM
GECODE_TUPLESET_MEM
GECODE_TUPLESET_MEM
GECODE_TUPLESET_MEM
GECODE_TUPLESET_MEM
GECODE_TUPLESET_MEM
GECODE_TUPLESET_MEM
GECODE_TUPLESET_MEM
GECODE_TUPLESET_MEM
GECODE_TUPLESET_MEM
GECODE_TUPLESET_MEM
GECODE_TUPLESET_MEM
GECODE_TUPLESET_MEM
GECODE_TUPLESET_MEM
GECODE_TUPLESET_MEM
GECODE_TUPLESET_MEM
GECODE_TUPLESET_MEM
GECODE_TUPLESET_MEM
GECODE_TUPLESET_MEM
GECODE_TUPLESET_MEM
GECODE_TUPLESET_MEM
GECODE_TUPLESET_MEM
GECODE_TUPLESET_MEM
GECODE_TUPLESET_MEM
GECODE_TUPLESET_MEM
GECODE_TUPLESET_MEM
GECODE_TUPLESET_MEM
GECODE_TUPLESET_MEM
GECODE_TUPLESET_MEM
GECODE_TUPLESET_MEM
GECODE_TUPLESET_MEM
GECODE_TUPLESET_MEM
GECODE_TUPLESET_MEM
GECODE_TUPLESET_MEM
GECODE_TUPLESET_MEM
GECODE_TUPLESET_MEM
GECODE_TUPLESET_MEM
GECODE_TUPLESET_MEM
GECODE_TUPLESET_MEM
GECODE_TUPLESET_MEM
GECODE_TUPLESET_MEM
GECODE_TUPLESET_MEM
GECODE_TUPLESET_MEM
GECODE_TUPLESET_MEM
GECODE_TUPLESET_MEM
GECODE_TUPLESET_MEM
GECODE_TUPLESET_MEM
GECODE_TUPLESET_MEM
GECODE_TUPLESET_MEM
GECODE_TUPLESET_MEM
GECODE_TUPLESET_MEM
GECODE_TUPLESET_MEM
GECODE_TUPLESET_MEM
GECODE_TUPLESET_MEM
GECODE_TUPLESET_MEM
GECODE_TUPLESET_MEM
GECODE_TUPLESET_MEM
GECODE_TUPLESET_MEM
GECODE_TUPLESET_MEM
GECODE_TUPLESET_MEM
GECODE_TUPLESET_MEM
GECODE_TUPLESET_MEM
GECODE_TUPLESET_MEM
GECODE_TUPLESET_MEM
GECODE_TUPLESET_MEM
GECODE_TUPLESET_MEM
GECODE_TUPLESET_MEM
GECODE_TUPLESET_MEM
GECODE_TUPLESET_MEM
GECODE_TUPLESET_MEM
GECODE_TUPLESET_MEM
GECODE_TUPLESET_MEM
GECODE_TUPLESET_MEM
GECODE_TUPLESET_MEM
GECODE_TUPLESET_MEM
GECODE_TUPLESET_MEM
GECODE_TUPLESET_MEM
GECODE_TUPLESET_MEM
GECODE_TUPLESET_MEM
GECODE_TUPLESET_MEM
GECODE_TUPLESET_MEM
GECODE_TUPLESET_MEM
GECODE_TUPLESET_MEM
GECODE_TUPLESET_MEM
GECODE_TUPLESET_MEM
GECODE_TUPLESET_MEM
GECODE_TUPLESET_MEM
GECODE_TUPLESET_MEM
GECODE_TUPLESET_MEM
GECODE_TUPLESET_MEM
GECODE_TUPLESET_MEM
GECODE_TUPLESET_MEM
GECODE_TUPLESET_MEM
GECODE_TUPLESET_MEM
GECODE_TUPLESET_MEM
GECODE_TUPLESET_MEM
GECODE_TUPLESET_MEM
GECODE_TUPLESET_MEM
GECODE_TUPLESET_MEM
GECODE_TUPLESET_MEM
GECODE_TUPLESET_MEM
GECODE_TUPLESET_MEM
GECODE_TUPLESET_MEM
GECODE_TUPLESET_MEM
GECODE_TUPLESET_MEM
GECODE_TUPLESET_MEM
GECODE_TUPLESET_MEM
GECODE_TUPLESET_MEM
GECODE_TUPLESET_MEM
GECODE_TUPLESET_MEM
GECODE_TUPLESET_MEM
GECODE_TUPLESET_MEM
GECODE_TUPLESET_MEM
GECODE_TUPLESET_MEM
GECODE_TUPLESET_MEM
GECODE_TUPLESET_MEM
GECODE_TUPLESET_MEM
GECODE_TUPLESET_MEM
GECODE_TUPLESET_MEM
GECODE_TUPLESET_MEM
GECODE_TUPLESET_MEM
GECODE_TUPLESET_MEM
GECODE_TUPLESET_MEM
GECODE_TUPLESET_MEM
L = array1d(0..368, [1, 1, 2, 12, 5, 19, 20, 19, 20, 1, 18, 20, 12, 5, 20, 18, 21, 19, 20, 19, 2, 18, 9, 12, 12, 15, 20, 5, 4, 9, 15, 21, 19, 8, 1, 13, 12, 5, 20, 18, 1, 14, 11, 5, 4, 5, 14, 1, 13, 5, 12, 19, 1, 13, 16, 5, 18, 5, 15, 14, 5, 4, 1, 18, 12, 5, 14, 5, 12, 5, 12, 9, 1, 5, 18, 18, 1, 4, 1, 13, 25, 1, 12, 20, 1, 3, 5, 14, 20, 19, 5, 22, 1, 14, 4, 9, 18, 1, 3, 7, 1, 19, 2, 15, 4, 5, 4, 5, 12, 5, 14, 1, 15, 8, 13, 1, 18, 3, 13, 1, 5, 19, 8, 5, 18, 5, 5, 11, 1, 18, 1, 3, 8, 9, 9, 20, 1, 9, 16, 21, 13, 25, 18, 9, 1, 4, 5, 12, 5, 7, 9, 1, 3, 12, 5, 14, 14, 15, 14, 1, 7, 15, 16, 5, 1, 18, 12, 19, 19, 23, 9, 13, 14, 15, 4, 1, 12, 12, 9, 20, 5, 1, 12, 15, 5, 19, 3, 1, 4, 18, 9, 3, 15, 12, 5, 9, 12, 1, 2, 21, 18, 18, 2, 5, 12, 9, 5, 6, 1, 8, 1, 5, 14, 3, 15, 4, 5, 1, 7, 21, 9, 18, 18, 5, 3, 18, 1, 14, 5, 4, 18, 5, 1, 16, 5, 18, 3, 25, 16, 18, 5, 19, 19, 3, 5, 4, 1, 18, 19, 9, 12, 1, 5, 1, 20, 1, 4, 1, 13, 1, 14, 14, 1, 12, 9, 11, 5, 14, 4, 5, 2, 1, 7, 1, 16, 5, 3, 18, 1, 7, 2, 1, 14, 5, 19, 13, 5, 18, 1, 11, 5, 4, 1, 13, 1, 3, 20, 7, 1, 2, 12, 5, 13, 1, 7, 8, 18, 5, 2, 10, 9, 2, 4, 1, 9, 19, 5, 19, 1, 14, 4, 15, 18, 18, 1, 2, 5, 6, 15, 18, 5, 1, 14, 15, 9, 14, 20, 14, 5, 5, 4, 9, 5, 18, 1, 12, 12, 9, 5, 4, 13, 5, 14, 19, 5, 19, 4, 18, 5, 19, 19, 5, 4, 2, 12, 15, 14, 4, 19]);
----------

%%  runtime:       8.596 (8596.618 ms)
%%  solvetime:     6.700 (6700.550 ms)
%%  solutions:     1
%%  variables:     39630
%%  propagators:   49701
%%  propagations:  14258520
%%  nodes:         3565
%%  failures:      1726
%%  restarts:      0
%%  peak depth:    146

GECODE_TUPLESET_SPEED
GECODE_TUPLESET_SPEED
GECODE_TUPLESET_SPEED
GECODE_TUPLESET_SPEED
GECODE_TUPLESET_SPEED
GECODE_TUPLESET_SPEED
GECODE_TUPLESET_SPEED
GECODE_TUPLESET_SPEED
GECODE_TUPLESET_SPEED
GECODE_TUPLESET_SPEED
GECODE_TUPLESET_SPEED
GECODE_TUPLESET_SPEED
GECODE_TUPLESET_SPEED
GECODE_TUPLESET_SPEED
GECODE_TUPLESET_SPEED
GECODE_TUPLESET_SPEED
GECODE_TUPLESET_SPEED
GECODE_TUPLESET_SPEED
GECODE_TUPLESET_SPEED
GECODE_TUPLESET_SPEED
GECODE_TUPLESET_SPEED
GECODE_TUPLESET_SPEED
GECODE_TUPLESET_SPEED
GECODE_TUPLESET_SPEED
GECODE_TUPLESET_SPEED
GECODE_TUPLESET_SPEED
GECODE_TUPLESET_SPEED
GECODE_TUPLESET_SPEED
GECODE_TUPLESET_SPEED
GECODE_TUPLESET_SPEED
GECODE_TUPLESET_SPEED
GECODE_TUPLESET_SPEED
GECODE_TUPLESET_SPEED
GECODE_TUPLESET_SPEED
GECODE_TUPLESET_SPEED
GECODE_TUPLESET_SPEED
GECODE_TUPLESET_SPEED
GECODE_TUPLESET_SPEED
GECODE_TUPLESET_SPEED
GECODE_TUPLESET_SPEED
GECODE_TUPLESET_SPEED
GECODE_TUPLESET_SPEED
GECODE_TUPLESET_SPEED
GECODE_TUPLESET_SPEED
GECODE_TUPLESET_SPEED
GECODE_TUPLESET_SPEED
GECODE_TUPLESET_SPEED
GECODE_TUPLESET_SPEED
GECODE_TUPLESET_SPEED
GECODE_TUPLESET_SPEED
GECODE_TUPLESET_SPEED
GECODE_TUPLESET_SPEED
GECODE_TUPLESET_SPEED
GECODE_TUPLESET_SPEED
GECODE_TUPLESET_SPEED
GECODE_TUPLESET_SPEED
GECODE_TUPLESET_SPEED
GECODE_TUPLESET_SPEED
GECODE_TUPLESET_SPEED
GECODE_TUPLESET_SPEED
GECODE_TUPLESET_SPEED
GECODE_TUPLESET_SPEED
GECODE_TUPLESET_SPEED
GECODE_TUPLESET_SPEED
GECODE_TUPLESET_SPEED
GECODE_TUPLESET_SPEED
GECODE_TUPLESET_SPEED
GECODE_TUPLESET_SPEED
GECODE_TUPLESET_SPEED
GECODE_TUPLESET_SPEED
GECODE_TUPLESET_SPEED
GECODE_TUPLESET_SPEED
GECODE_TUPLESET_SPEED
GECODE_TUPLESET_SPEED
GECODE_TUPLESET_SPEED
GECODE_TUPLESET_SPEED
GECODE_TUPLESET_SPEED
GECODE_TUPLESET_SPEED
GECODE_TUPLESET_SPEED
GECODE_TUPLESET_SPEED
GECODE_TUPLESET_SPEED
GECODE_TUPLESET_SPEED
GECODE_TUPLESET_SPEED
GECODE_TUPLESET_SPEED
GECODE_TUPLESET_SPEED
GECODE_TUPLESET_SPEED
GECODE_TUPLESET_SPEED
GECODE_TUPLESET_SPEED
GECODE_TUPLESET_SPEED
GECODE_TUPLESET_SPEED
GECODE_TUPLESET_SPEED
GECODE_TUPLESET_SPEED
GECODE_TUPLESET_SPEED
GECODE_TUPLESET_SPEED
GECODE_TUPLESET_SPEED
GECODE_TUPLESET_SPEED
GECODE_TUPLESET_SPEED
GECODE_TUPLESET_SPEED
GECODE_TUPLESET_SPEED
GECODE_TUPLESET_SPEED
GECODE_TUPLESET_SPEED
GECODE_TUPLESET_SPEED
GECODE_TUPLESET_SPEED
GECODE_TUPLESET_SPEED
GECODE_TUPLESET_SPEED
GECODE_TUPLESET_SPEED
GECODE_TUPLESET_SPEED
GECODE_TUPLESET_SPEED
GECODE_TUPLESET_SPEED
GECODE_TUPLESET_SPEED
GECODE_TUPLESET_SPEED
GECODE_TUPLESET_SPEED
GECODE_TUPLESET_SPEED
GECODE_TUPLESET_SPEED
GECODE_TUPLESET_SPEED
GECODE_TUPLESET_SPEED
GECODE_TUPLESET_SPEED
GECODE_TUPLESET_SPEED
GECODE_TUPLESET_SPEED
GECODE_TUPLESET_SPEED
GECODE_TUPLESET_SPEED
GECODE_TUPLESET_SPEED
GECODE_TUPLESET_SPEED
GECODE_TUPLESET_SPEED
GECODE_TUPLESET_SPEED
GECODE_TUPLESET_SPEED
GECODE_TUPLESET_SPEED
GECODE_TUPLESET_SPEED
GECODE_TUPLESET_SPEED
GECODE_TUPLESET_SPEED
GECODE_TUPLESET_SPEED
GECODE_TUPLESET_SPEED
GECODE_TUPLESET_SPEED
GECODE_TUPLESET_SPEED
GECODE_TUPLESET_SPEED
GECODE_TUPLESET_SPEED
GECODE_TUPLESET_SPEED
GECODE_TUPLESET_SPEED
GECODE_TUPLESET_SPEED
GECODE_TUPLESET_SPEED
GECODE_TUPLESET_SPEED
GECODE_TUPLESET_SPEED
GECODE_TUPLESET_SPEED
GECODE_TUPLESET_SPEED
L = array1d(0..368, [1, 1, 2, 12, 5, 19, 20, 19, 20, 1, 18, 20, 12, 5, 20, 18, 21, 19, 20, 19, 2, 18, 9, 12, 12, 15, 20, 5, 4, 9, 15, 21, 19, 8, 1, 13, 12, 5, 20, 18, 1, 14, 11, 5, 4, 5, 14, 1, 13, 5, 12, 19, 1, 13, 16, 5, 18, 5, 15, 14, 5, 4, 1, 18, 12, 5, 14, 5, 12, 5, 12, 9, 1, 5, 18, 18, 1, 4, 1, 13, 25, 1, 12, 20, 1, 3, 5, 14, 20, 19, 5, 22, 1, 14, 4, 9, 18, 1, 3, 7, 1, 19, 2, 15, 4, 5, 4, 5, 12, 5, 14, 1, 15, 8, 13, 1, 18, 3, 13, 1, 5, 19, 8, 5, 18, 5, 5, 11, 1, 18, 1, 3, 8, 9, 9, 20, 1, 9, 16, 21, 13, 25, 18, 9, 1, 4, 5, 12, 5, 7, 9, 1, 3, 12, 5, 14, 14, 15, 14, 1, 7, 15, 16, 5, 1, 18, 12, 19, 19, 23, 9, 13, 14, 15, 4, 1, 12, 12, 9, 20, 5, 1, 12, 15, 5, 19, 3, 1, 4, 18, 9, 3, 15, 12, 5, 9, 12, 1, 2, 21, 18, 18, 2, 5, 12, 9, 5, 6, 1, 8, 1, 5, 14, 3, 15, 4, 5, 1, 7, 21, 9, 18, 18, 5, 3, 18, 1, 14, 5, 4, 18, 5, 1, 16, 5, 18, 3, 25, 16, 18, 5, 19, 19, 3, 5, 4, 1, 18, 19, 9, 12, 1, 5, 1, 20, 1, 4, 1, 13, 1, 14, 14, 1, 12, 9, 11, 5, 14, 4, 5, 2, 1, 7, 1, 16, 5, 3, 18, 1, 7, 2, 1, 14, 5, 19, 13, 5, 18, 1, 11, 5, 4, 1, 13, 1, 3, 20, 7, 1, 2, 12, 5, 13, 1, 7, 8, 18, 5, 2, 10, 9, 2, 4, 1, 9, 19, 5, 19, 1, 14, 4, 15, 18, 18, 1, 2, 5, 6, 15, 18, 5, 1, 14, 15, 9, 14, 20, 14, 5, 5, 4, 9, 5, 18, 1, 12, 12, 9, 5, 4, 13, 5, 14, 19, 5, 19, 4, 18, 5, 19, 19, 5, 4, 2, 12, 15, 14, 4, 19]);
----------

%%  runtime:       9.787 (9787.033 ms)
%%  solvetime:     7.881 (7881.457 ms)
%%  solutions:     1
%%  variables:     39630
%%  propagators:   49701
%%  propagations:  14318683
%%  nodes:         3565
%%  failures:      1726
%%  restarts:      0
%%  peak depth:    146

COMPACT_TABLE
COMPACT_TABLE
COMPACT_TABLE
COMPACT_TABLE
COMPACT_TABLE
COMPACT_TABLE
COMPACT_TABLE
COMPACT_TABLE
COMPACT_TABLE
COMPACT_TABLE
COMPACT_TABLE
COMPACT_TABLE
COMPACT_TABLE
COMPACT_TABLE
COMPACT_TABLE
COMPACT_TABLE
COMPACT_TABLE
COMPACT_TABLE
COMPACT_TABLE
COMPACT_TABLE
COMPACT_TABLE
COMPACT_TABLE
COMPACT_TABLE
COMPACT_TABLE
COMPACT_TABLE
COMPACT_TABLE
COMPACT_TABLE
COMPACT_TABLE
COMPACT_TABLE
COMPACT_TABLE
COMPACT_TABLE
COMPACT_TABLE
COMPACT_TABLE
COMPACT_TABLE
COMPACT_TABLE
COMPACT_TABLE
COMPACT_TABLE
COMPACT_TABLE
COMPACT_TABLE
COMPACT_TABLE
COMPACT_TABLE
COMPACT_TABLE
COMPACT_TABLE
COMPACT_TABLE
COMPACT_TABLE
COMPACT_TABLE
COMPACT_TABLE
COMPACT_TABLE
COMPACT_TABLE
COMPACT_TABLE
COMPACT_TABLE
COMPACT_TABLE
COMPACT_TABLE
COMPACT_TABLE
COMPACT_TABLE
COMPACT_TABLE
COMPACT_TABLE
COMPACT_TABLE
COMPACT_TABLE
COMPACT_TABLE
COMPACT_TABLE
COMPACT_TABLE
COMPACT_TABLE
COMPACT_TABLE
COMPACT_TABLE
COMPACT_TABLE
COMPACT_TABLE
COMPACT_TABLE
COMPACT_TABLE
COMPACT_TABLE
COMPACT_TABLE
COMPACT_TABLE
COMPACT_TABLE
COMPACT_TABLE
COMPACT_TABLE
COMPACT_TABLE
COMPACT_TABLE
COMPACT_TABLE
COMPACT_TABLE
COMPACT_TABLE
COMPACT_TABLE
COMPACT_TABLE
COMPACT_TABLE
COMPACT_TABLE
COMPACT_TABLE
COMPACT_TABLE
COMPACT_TABLE
COMPACT_TABLE
COMPACT_TABLE
COMPACT_TABLE
COMPACT_TABLE
COMPACT_TABLE
COMPACT_TABLE
COMPACT_TABLE
COMPACT_TABLE
COMPACT_TABLE
COMPACT_TABLE
COMPACT_TABLE
COMPACT_TABLE
COMPACT_TABLE
COMPACT_TABLE
COMPACT_TABLE
COMPACT_TABLE
COMPACT_TABLE
COMPACT_TABLE
COMPACT_TABLE
COMPACT_TABLE
COMPACT_TABLE
COMPACT_TABLE
COMPACT_TABLE
COMPACT_TABLE
COMPACT_TABLE
COMPACT_TABLE
COMPACT_TABLE
COMPACT_TABLE
COMPACT_TABLE
COMPACT_TABLE
COMPACT_TABLE
COMPACT_TABLE
COMPACT_TABLE
COMPACT_TABLE
COMPACT_TABLE
COMPACT_TABLE
COMPACT_TABLE
COMPACT_TABLE
COMPACT_TABLE
COMPACT_TABLE
COMPACT_TABLE
COMPACT_TABLE
COMPACT_TABLE
COMPACT_TABLE
COMPACT_TABLE
COMPACT_TABLE
COMPACT_TABLE
COMPACT_TABLE
COMPACT_TABLE
COMPACT_TABLE
COMPACT_TABLE
COMPACT_TABLE
COMPACT_TABLE
COMPACT_TABLE
COMPACT_TABLE
COMPACT_TABLE
COMPACT_TABLE
L = array1d(0..368, [1, 1, 2, 12, 5, 19, 20, 19, 20, 1, 18, 20, 12, 5, 20, 18, 21, 19, 20, 19, 2, 18, 9, 12, 12, 15, 20, 5, 4, 9, 15, 21, 19, 8, 1, 13, 12, 5, 20, 18, 1, 14, 11, 5, 4, 5, 14, 1, 13, 5, 12, 19, 1, 13, 16, 5, 18, 5, 15, 14, 5, 4, 1, 18, 12, 5, 14, 5, 12, 5, 12, 9, 1, 5, 18, 18, 1, 4, 1, 13, 25, 1, 12, 20, 1, 3, 5, 14, 20, 19, 5, 22, 1, 14, 4, 9, 18, 1, 3, 7, 1, 19, 2, 15, 4, 5, 4, 5, 12, 5, 14, 1, 15, 8, 13, 1, 18, 3, 13, 1, 5, 19, 8, 5, 18, 5, 5, 11, 1, 18, 1, 3, 8, 9, 9, 20, 1, 9, 16, 21, 13, 25, 18, 9, 1, 4, 5, 12, 5, 7, 9, 1, 3, 12, 5, 14, 14, 15, 14, 1, 7, 15, 16, 5, 1, 18, 12, 19, 19, 23, 9, 13, 14, 15, 4, 1, 12, 12, 9, 20, 5, 1, 12, 15, 5, 19, 3, 1, 4, 18, 9, 3, 15, 12, 5, 9, 12, 1, 2, 21, 18, 18, 2, 5, 12, 9, 5, 6, 1, 8, 1, 5, 14, 3, 15, 4, 5, 1, 7, 21, 9, 18, 18, 5, 3, 18, 1, 14, 5, 4, 18, 5, 1, 16, 5, 18, 3, 25, 16, 18, 5, 19, 19, 3, 5, 4, 1, 18, 19, 9, 12, 1, 5, 1, 20, 1, 4, 1, 13, 1, 14, 14, 1, 12, 9, 11, 5, 14, 4, 5, 2, 1, 7, 1, 16, 5, 3, 18, 1, 7, 2, 1, 14, 5, 19, 13, 5, 18, 1, 11, 5, 4, 1, 13, 1, 3, 20, 7, 1, 2, 12, 5, 13, 1, 7, 8, 18, 5, 2, 10, 9, 2, 4, 1, 9, 19, 5, 19, 1, 14, 4, 15, 18, 18, 1, 2, 5, 6, 15, 18, 5, 1, 14, 15, 9, 14, 20, 14, 5, 5, 4, 9, 5, 18, 1, 12, 12, 9, 5, 4, 13, 5, 14, 19, 5, 19, 4, 18, 5, 19, 19, 5, 4, 2, 12, 15, 14, 4, 19]);
----------

%%  runtime:       6.984 (6984.652 ms)
%%  solvetime:     4.332 (4332.686 ms)
%%  solutions:     1
%%  variables:     39630
%%  propagators:   49701
%%  propagations:  14134522
%%  nodes:         3565
%%  failures:      1726
%%  restarts:      0
%%  peak depth:    146

